<number of tasks>
89

<cycle time>
103

<task times>
1 28
2 17
3 7
4 10
5 12
6 16
7 13
8 8
9 13
10 24
11 16
12 24
13 12
14 20
15 22
16 22
17 22
18 47
19 6
20 12
21 6
22 22
23 7
24 14
25 68
26 15
27 8
28 74
29 32
30 11
31 18
32 15
33 42
34 27
35 38
36 38
37 26
38 35
39 31
40 8
41 14
42 8
43 8
44 8
45 17
46 7
47 19
48 12
49 24
50 26
51 22
52 14
53 27
54 60
55 4
56 2
57 1
58 9
59 5
60 6
61 7
62 12
63 2
64 11
65 14
66 6
67 21
68 14
69 1
70 6
71 21
72 11
73 14
74 28
75 12
76 11
77 30
78 22
79 14
80 31
81 18
82 16
83 7
84 38
85 8
86 31
87 29
88 12
89 18

<precedence relations>
1,2
2,3
3,4
4,5
4,6
4,7
4,8
4,9
5,10
6,11
7,12
8,18
9,18
10,14
11,12
12,13
13,14
14,15
14,16
15,17
16,54
17,18
18,19
18,20
19,22
20,21
20,28
21,54
22,23
23,24
24,25
25,26
25,27
25,29
26,37
27,33
28,29
29,31
30,54
31,32
32,33
33,34
34,35
35,36
35,37
36,38
37,38
38,39
39,40
39,41
39,42
39,43
40,44
41,53
42,53
43,45
44,52
45,46
46,47
47,48
47,49
49,50
50,51
51,52
52,53
53,68
53,69
53,70
53,71
54,55
55,56
56,57
57,58
57,59
57,60
57,61
57,62
57,63
57,64
57,65
57,66
58,67
59,67
60,67
61,67
62,67
63,67
64,67
65,67
66,67
67,73
68,72
69,72
70,72
71,73
72,78
72,80
73,74
74,75
74,76
75,77
76,81
77,78
78,79
79,81
80,81
81,82
81,84
81,85
82,83
83,86
84,86
85,86
86,87
87,88
87,89

<setup times forward>
1,30:3
2,30:3
3,30:3
4,5:7
4,7:7
4,9:7
4,30:3
5,6:7
5,8:7
5,11:7
5,30:10
6,5:7
6,7:7
6,9:7
6,10:7
6,30:3
7,6:7
7,8:7
7,11:7
7,30:10
8,5:7
8,7:7
8,9:7
8,10:7
8,12:7
8,13:7
8,14:3
8,15:3
8,16:3
8,17:3
8,18:3
8,30:3
9,6:7
9,8:7
9,11:7
9,14:10
9,15:10
9,16:10
9,17:10
9,18:4
9,30:10
10,6:7
10,8:7
10,11:7
10,14:10
10,30:10
11,5:7
11,7:7
11,9:7
11,10:7
11,12:7
11,30:3
12,8:7
12,30:10
13,8:7
13,14:10
13,30:10
14,8:3
14,9:10
15,8:3
15,9:10
16,8:3
16,9:10
16,18:6
16,19:6
16,20:6
16,21:6
16,22:6
16,23:6
16,24:5
16,25:5
16,26:1
16,27:5
16,28:1
16,29:3
16,31:3
16,32:3
16,33:3
16,34:7
16,35:7
16,36:7
16,40:2
16,41:2
16,42:2
16,44:2
16,45:5
16,46:5
16,47:5
16,48:5
16,49:5
16,50:5
16,51:5
16,52:5
16,53:5
16,54:3
16,68:8
16,69:8
16,70:8
16,71:8
16,72:8
16,80:8
17,8:3
17,9:10
17,18:6
18,16:6
18,30:6
19,16:6
19,28:7
19,30:6
19,54:9
19,55:11
19,56:11
19,57:11
19,58:4
19,59:4
19,60:4
19,61:1
19,62:4
19,63:11
19,64:4
19,65:4
19,66:4
19,67:1
20,16:6
20,24:1
20,25:1
20,26:7
20,27:1
20,28:7
20,30:6
21,16:6
21,24:1
21,25:1
21,26:7
21,27:1
21,28:7
21,29:3
21,30:6
21,31:3
21,32:3
21,33:9
21,34:1
21,35:1
21,36:1
21,37:6
21,38:6
21,39:6
21,40:4
21,41:4
21,42:4
21,43:6
21,44:4
21,45:11
21,46:11
21,47:11
21,48:1
21,49:11
21,50:11
21,51:1
21,52:1
21,53:1
21,54:9
21,68:2
21,69:2
21,70:2
21,71:2
21,72:2
21,80:2
22,16:6
22,28:7
22,30:6
22,54:9
22,55:11
22,56:11
22,57:11
22,58:4
22,59:4
22,60:4
22,61:1
22,62:4
22,63:11
22,64:4
22,65:4
22,66:4
22,67:1
23,16:6
23,24:1
23,28:7
23,30:6
23,54:9
23,55:11
23,56:11
23,57:11
23,58:4
23,59:4
23,60:4
23,61:1
23,62:4
23,63:11
23,64:4
23,65:4
23,66:4
23,67:1
24,16:5
24,20:1
24,21:1
24,28:6
24,30:5
24,54:8
24,55:10
24,56:10
24,57:10
24,58:3
24,59:3
24,60:3
24,62:3
24,63:10
24,64:3
24,65:3
24,66:3
25,16:5
25,20:1
25,21:1
25,26:6
25,28:6
25,29:2
25,30:5
25,54:8
25,55:10
25,56:10
25,57:10
25,58:3
25,59:3
25,60:3
25,62:3
25,63:10
25,64:3
25,65:3
25,66:3
26,16:1
26,20:7
26,21:7
26,27:6
26,29:4
26,30:1
26,31:4
26,32:4
26,33:2
26,34:8
26,35:8
26,36:8
26,37:1
26,54:2
26,55:4
26,56:4
26,57:4
26,58:3
26,59:3
26,60:3
26,61:6
26,62:3
26,63:4
26,64:3
26,65:3
26,66:3
26,67:6
27,16:5
27,20:1
27,21:1
27,26:6
27,28:6
27,29:2
27,30:5
27,31:2
27,32:2
27,33:8
27,54:8
27,55:10
27,56:10
27,57:10
27,58:3
27,59:3
27,60:3
27,62:3
27,63:10
27,64:3
27,65:3
27,66:3
28,16:1
28,19:7
28,21:7
28,22:7
28,23:7
28,24:6
28,25:6
28,27:6
28,29:4
28,30:1
28,54:2
28,55:4
28,56:4
28,57:4
28,58:3
28,59:3
28,60:3
28,61:6
28,62:3
28,63:4
28,64:3
28,65:3
28,66:3
28,67:6
29,16:3
29,21:3
29,26:4
29,27:2
29,30:3
29,54:6
29,55:8
29,56:8
29,57:8
29,58:1
29,59:1
29,60:1
29,61:2
29,62:1
29,63:8
29,64:1
29,65:1
29,66:1
29,67:2
30,1:3
30,2:3
30,3:3
30,4:3
30,5:10
30,6:3
30,7:10
30,8:3
30,9:10
30,10:10
30,11:3
30,12:10
30,13:10
30,18:6
30,19:6
30,20:6
30,21:6
30,22:6
30,23:6
30,24:5
30,25:5
30,26:1
30,27:5
30,28:1
30,29:3
30,31:3
30,32:3
30,33:3
30,34:7
30,35:7
30,36:7
30,40:2
30,41:2
30,42:2
30,44:2
30,45:5
30,46:5
30,47:5
30,48:5
30,49:5
30,50:5
30,51:5
30,52:5
30,53:5
30,54:3
30,68:8
30,69:8
30,70:8
30,71:8
30,72:8
30,80:8
31,16:3
31,21:3
31,26:4
31,27:2
31,30:3
31,54:6
31,55:8
31,56:8
31,57:8
31,58:1
31,59:1
31,60:1
31,61:2
31,62:1
31,63:8
31,64:1
31,65:1
31,66:1
31,67:2
32,16:3
32,21:3
32,26:4
32,27:2
32,30:3
32,33:6
32,54:6
32,55:8
32,56:8
32,57:8
32,58:1
32,59:1
32,60:1
32,61:2
32,62:1
32,63:8
32,64:1
32,65:1
32,66:1
32,67:2
33,16:3
33,21:9
33,26:2
33,30:3
33,34:10
33,55:2
33,56:2
33,57:2
33,58:5
33,59:5
33,60:5
33,61:8
33,62:5
33,63:2
33,64:5
33,65:5
33,66:5
33,67:8
34,16:7
34,21:1
34,26:8
34,30:7
34,54:10
34,55:12
34,56:12
34,57:12
34,58:5
34,59:5
34,60:5
34,61:2
34,62:5
34,63:12
34,64:5
34,65:5
34,66:5
34,67:2
35,16:7
35,21:1
35,26:8
35,30:7
35,37:7
35,54:10
35,55:12
35,56:12
35,57:12
35,58:5
35,59:5
35,60:5
35,61:2
35,62:5
35,63:12
35,64:5
35,65:5
35,66:5
35,67:2
36,16:7
36,21:1
36,26:8
36,30:7
36,37:7
36,38:7
36,54:10
36,55:12
36,56:12
36,57:12
36,58:5
36,59:5
36,60:5
36,61:2
36,62:5
36,63:12
36,64:5
36,65:5
36,66:5
36,67:2
37,21:6
37,36:7
37,54:3
37,55:5
37,56:5
37,57:5
37,58:2
37,59:2
37,60:2
37,61:5
37,62:2
37,63:5
37,64:2
37,65:2
37,66:2
37,67:5
38,21:6
38,54:3
38,55:5
38,56:5
38,57:5
38,58:2
38,59:2
38,60:2
38,61:5
38,62:2
38,63:5
38,64:2
38,65:2
38,66:2
38,67:5
39,21:6
39,40:2
39,41:2
39,42:2
39,54:3
39,55:5
39,56:5
39,57:5
39,58:2
39,59:2
39,60:2
39,61:5
39,62:2
39,63:5
39,64:2
39,65:2
39,66:2
39,67:5
40,16:2
40,21:4
40,30:2
40,43:2
40,45:7
40,46:7
40,47:7
40,48:3
40,49:7
40,50:7
40,51:3
40,54:5
40,55:7
40,56:7
40,57:7
40,61:3
40,63:7
40,67:3
41,16:2
41,21:4
41,30:2
41,43:2
41,45:7
41,46:7
41,47:7
41,48:3
41,49:7
41,50:7
41,51:3
41,52:3
41,53:3
41,54:5
41,55:7
41,56:7
41,57:7
41,61:3
41,63:7
41,67:3
42,16:2
42,21:4
42,30:2
42,43:2
42,45:7
42,46:7
42,47:7
42,48:3
42,49:7
42,50:7
42,51:3
42,52:3
42,53:3
42,54:5
42,55:7
42,56:7
42,57:7
42,61:3
42,63:7
42,67:3
43,21:6
43,40:2
43,41:2
43,42:2
43,44:2
43,45:5
43,54:3
43,55:5
43,56:5
43,57:5
43,58:2
43,59:2
43,60:2
43,61:5
43,62:2
43,63:5
43,64:2
43,65:2
43,66:2
43,67:5
44,16:2
44,21:4
44,30:2
44,43:2
44,45:7
44,46:7
44,47:7
44,48:3
44,49:7
44,50:7
44,51:3
44,52:3
44,54:5
44,55:7
44,56:7
44,57:7
44,61:3
44,63:7
44,67:3
45,16:5
45,21:11
45,30:5
45,40:7
45,41:7
45,42:7
45,44:7
45,54:2
45,58:7
45,59:7
45,60:7
45,61:10
45,62:7
45,64:7
45,65:7
45,66:7
45,67:10
46,16:5
46,21:11
46,30:5
46,40:7
46,41:7
46,42:7
46,44:7
46,54:2
46,58:7
46,59:7
46,60:7
46,61:10
46,62:7
46,64:7
46,65:7
46,66:7
46,67:10
47,16:5
47,21:11
47,30:5
47,40:7
47,41:7
47,42:7
47,44:7
47,48:10
47,54:2
47,58:7
47,59:7
47,60:7
47,61:10
47,62:7
47,64:7
47,65:7
47,66:7
47,67:10
48,16:5
48,21:1
48,30:5
48,40:3
48,41:3
48,42:3
48,44:3
48,49:10
48,50:10
48,54:8
48,55:10
48,56:10
48,57:10
48,58:3
48,59:3
48,60:3
48,62:3
48,63:10
48,64:3
48,65:3
48,66:3
48,68:3
48,69:3
48,70:3
48,71:3
48,72:3
48,73:3
48,74:11
48,75:11
48,76:11
48,77:11
48,78:11
48,79:10
48,80:3
48,81:10
48,82:10
48,83:5
48,84:10
48,85:10
48,86:5
48,87:5
48,88:5
48,89:5
49,16:5
49,21:11
49,30:5
49,40:7
49,41:7
49,42:7
49,44:7
49,48:10
49,54:2
49,58:7
49,59:7
49,60:7
49,61:10
49,62:7
49,64:7
49,65:7
49,66:7
49,67:10
50,16:5
50,21:11
50,30:5
50,40:7
50,41:7
50,42:7
50,44:7
50,48:10
50,51:10
50,54:2
50,58:7
50,59:7
50,60:7
50,61:10
50,62:7
50,64:7
50,65:7
50,66:7
50,67:10
51,16:5
51,21:1
51,30:5
51,40:3
51,41:3
51,42:3
51,44:3
51,54:8
51,55:10
51,56:10
51,57:10
51,58:3
51,59:3
51,60:3
51,62:3
51,63:10
51,64:3
51,65:3
51,66:3
52,16:5
52,21:1
52,30:5
52,41:3
52,42:3
52,54:8
52,55:10
52,56:10
52,57:10
52,58:3
52,59:3
52,60:3
52,62:3
52,63:10
52,64:3
52,65:3
52,66:3
53,16:5
53,21:1
53,30:5
53,54:8
53,55:10
53,56:10
53,57:10
53,58:3
53,59:3
53,60:3
53,62:3
53,63:10
53,64:3
53,65:3
53,66:3
53,68:3
53,69:3
53,70:3
53,71:3
54,19:9
54,22:9
54,23:9
54,24:8
54,25:8
54,26:2
54,27:8
54,28:2
54,29:6
54,31:6
54,32:6
54,34:10
54,35:10
54,36:10
54,37:3
54,38:3
54,39:3
54,40:5
54,41:5
54,42:5
54,43:3
54,44:5
54,45:2
54,46:2
54,47:2
54,48:8
54,49:2
54,50:2
54,51:8
54,52:8
54,53:8
54,55:2
54,68:11
54,69:11
54,70:11
54,71:11
54,72:11
54,80:11
55,19:11
55,22:11
55,23:11
55,24:10
55,25:10
55,26:4
55,27:10
55,28:4
55,29:8
55,31:8
55,32:8
55,33:2
55,34:12
55,35:12
55,36:12
55,37:5
55,38:5
55,39:5
55,40:7
55,41:7
55,42:7
55,43:5
55,44:7
55,48:10
55,51:10
55,52:10
55,53:10
55,68:13
55,69:13
55,70:13
55,71:13
55,72:13
55,80:13
56,19:11
56,22:11
56,23:11
56,24:10
56,25:10
56,26:4
56,27:10
56,28:4
56,29:8
56,31:8
56,32:8
56,33:2
56,34:12
56,35:12
56,36:12
56,37:5
56,38:5
56,39:5
56,40:7
56,41:7
56,42:7
56,43:5
56,44:7
56,48:10
56,51:10
56,52:10
56,53:10
56,68:13
56,69:13
56,70:13
56,71:13
56,72:13
56,80:13
57,19:11
57,22:11
57,23:11
57,24:10
57,25:10
57,26:4
57,27:10
57,28:4
57,29:8
57,31:8
57,32:8
57,33:2
57,34:12
57,35:12
57,36:12
57,37:5
57,38:5
57,39:5
57,40:7
57,41:7
57,42:7
57,43:5
57,44:7
57,48:10
57,51:10
57,52:10
57,53:10
57,58:7
57,59:7
57,60:7
57,61:10
57,62:7
57,64:7
57,65:7
57,66:7
57,68:13
57,69:13
57,70:13
57,71:13
57,72:13
57,80:13
58,19:4
58,22:4
58,23:4
58,24:3
58,25:3
58,26:3
58,27:3
58,28:3
58,29:1
58,31:1
58,32:1
58,33:5
58,34:5
58,35:5
58,36:5
58,37:2
58,38:2
58,39:2
58,43:2
58,45:7
58,46:7
58,47:7
58,48:3
58,49:7
58,50:7
58,51:3
58,52:3
58,53:3
58,61:3
58,63:7
58,67:3
58,68:6
58,69:6
58,70:6
58,71:6
58,72:6
58,80:6
59,19:4
59,22:4
59,23:4
59,24:3
59,25:3
59,26:3
59,27:3
59,28:3
59,29:1
59,31:1
59,32:1
59,33:5
59,34:5
59,35:5
59,36:5
59,37:2
59,38:2
59,39:2
59,43:2
59,45:7
59,46:7
59,47:7
59,48:3
59,49:7
59,50:7
59,51:3
59,52:3
59,53:3
59,61:3
59,63:7
59,67:3
59,68:6
59,69:6
59,70:6
59,71:6
59,72:6
59,80:6
60,19:4
60,22:4
60,23:4
60,24:3
60,25:3
60,26:3
60,27:3
60,28:3
60,29:1
60,31:1
60,32:1
60,33:5
60,34:5
60,35:5
60,36:5
60,37:2
60,38:2
60,39:2
60,43:2
60,45:7
60,46:7
60,47:7
60,48:3
60,49:7
60,50:7
60,51:3
60,52:3
60,53:3
60,61:3
60,63:7
60,67:3
60,68:6
60,69:6
60,70:6
60,71:6
60,72:6
60,80:6
61,19:1
61,22:1
61,23:1
61,26:6
61,28:6
61,29:2
61,31:2
61,32:2
61,33:8
61,34:2
61,35:2
61,36:2
61,37:5
61,38:5
61,39:5
61,40:3
61,41:3
61,42:3
61,43:5
61,44:3
61,45:10
61,46:10
61,47:10
61,49:10
61,50:10
61,58:3
61,59:3
61,60:3
61,62:3
61,63:10
61,64:3
61,65:3
61,66:3
61,68:3
61,69:3
61,70:3
61,71:3
61,72:3
61,80:3
62,19:4
62,22:4
62,23:4
62,24:3
62,25:3
62,26:3
62,27:3
62,28:3
62,29:1
62,31:1
62,32:1
62,33:5
62,34:5
62,35:5
62,36:5
62,37:2
62,38:2
62,39:2
62,43:2
62,45:7
62,46:7
62,47:7
62,48:3
62,49:7
62,50:7
62,51:3
62,52:3
62,53:3
62,61:3
62,63:7
62,67:3
62,68:6
62,69:6
62,70:6
62,71:6
62,72:6
62,80:6
63,19:11
63,22:11
63,23:11
63,24:10
63,25:10
63,26:4
63,27:10
63,28:4
63,29:8
63,31:8
63,32:8
63,33:2
63,34:12
63,35:12
63,36:12
63,37:5
63,38:5
63,39:5
63,40:7
63,41:7
63,42:7
63,43:5
63,44:7
63,48:10
63,51:10
63,52:10
63,53:10
63,58:7
63,59:7
63,60:7
63,61:10
63,62:7
63,64:7
63,65:7
63,66:7
63,67:10
63,68:13
63,69:13
63,70:13
63,71:13
63,72:13
63,80:13
64,19:4
64,22:4
64,23:4
64,24:3
64,25:3
64,26:3
64,27:3
64,28:3
64,29:1
64,31:1
64,32:1
64,33:5
64,34:5
64,35:5
64,36:5
64,37:2
64,38:2
64,39:2
64,43:2
64,45:7
64,46:7
64,47:7
64,48:3
64,49:7
64,50:7
64,51:3
64,52:3
64,53:3
64,61:3
64,63:7
64,67:3
64,68:6
64,69:6
64,70:6
64,71:6
64,72:6
64,80:6
65,19:4
65,22:4
65,23:4
65,24:3
65,25:3
65,26:3
65,27:3
65,28:3
65,29:1
65,31:1
65,32:1
65,33:5
65,34:5
65,35:5
65,36:5
65,37:2
65,38:2
65,39:2
65,43:2
65,45:7
65,46:7
65,47:7
65,48:3
65,49:7
65,50:7
65,51:3
65,52:3
65,53:3
65,61:3
65,63:7
65,67:3
65,68:6
65,69:6
65,70:6
65,71:6
65,72:6
65,80:6
66,19:4
66,22:4
66,23:4
66,24:3
66,25:3
66,26:3
66,27:3
66,28:3
66,29:1
66,31:1
66,32:1
66,33:5
66,34:5
66,35:5
66,36:5
66,37:2
66,38:2
66,39:2
66,43:2
66,45:7
66,46:7
66,47:7
66,48:3
66,49:7
66,50:7
66,51:3
66,52:3
66,53:3
66,61:3
66,63:7
66,67:3
66,68:6
66,69:6
66,70:6
66,71:6
66,72:6
66,80:6
67,19:1
67,22:1
67,23:1
67,26:6
67,28:6
67,29:2
67,31:2
67,32:2
67,33:8
67,34:2
67,35:2
67,36:2
67,37:5
67,38:5
67,39:5
67,40:3
67,41:3
67,42:3
67,43:5
67,44:3
67,45:10
67,46:10
67,47:10
67,49:10
67,50:10
67,68:3
67,69:3
67,70:3
67,71:3
67,72:3
67,73:3
67,80:3
68,16:8
68,21:2
68,30:8
68,48:3
68,54:11
68,55:13
68,56:13
68,57:13
68,58:6
68,59:6
68,60:6
68,61:3
68,62:6
68,63:13
68,64:6
68,65:6
68,66:6
68,67:3
68,74:14
68,75:14
68,76:14
68,77:14
69,16:8
69,21:2
69,30:8
69,48:3
69,54:11
69,55:13
69,56:13
69,57:13
69,58:6
69,59:6
69,60:6
69,61:3
69,62:6
69,63:13
69,64:6
69,65:6
69,66:6
69,67:3
69,74:14
69,75:14
69,76:14
69,77:14
70,16:8
70,21:2
70,30:8
70,48:3
70,54:11
70,55:13
70,56:13
70,57:13
70,58:6
70,59:6
70,60:6
70,61:3
70,62:6
70,63:13
70,64:6
70,65:6
70,66:6
70,67:3
70,74:14
70,75:14
70,76:14
70,77:14
71,16:8
71,21:2
71,30:8
71,48:3
71,54:11
71,55:13
71,56:13
71,57:13
71,58:6
71,59:6
71,60:6
71,61:3
71,62:6
71,63:13
71,64:6
71,65:6
71,66:6
71,67:3
72,16:8
72,21:2
72,30:8
72,48:3
72,54:11
72,55:13
72,56:13
72,57:13
72,58:6
72,59:6
72,60:6
72,61:3
72,62:6
72,63:13
72,64:6
72,65:6
72,66:6
72,67:3
72,74:14
72,75:14
72,76:14
72,77:14
72,78:14
73,48:3
73,74:14
74,48:11
74,68:14
74,69:14
74,70:14
74,72:14
74,80:14
75,48:11
75,68:14
75,69:14
75,70:14
75,72:14
75,80:14
76,48:11
76,68:14
76,69:14
76,70:14
76,72:14
76,79:1
76,80:14
76,81:1
77,48:11
77,68:14
77,69:14
77,70:14
77,72:14
77,80:14
78,48:11
78,79:1
78,80:14
79,48:10
79,76:1
79,80:13
80,16:8
80,21:2
80,30:8
80,48:3
80,54:11
80,55:13
80,56:13
80,57:13
80,58:6
80,59:6
80,60:6
80,61:3
80,62:6
80,63:13
80,64:6
80,65:6
80,66:6
80,67:3
80,74:14
80,75:14
80,76:14
80,77:14
80,78:14
80,79:13
80,81:13
81,48:10
82,48:10
82,83:15
83,48:5
83,84:15
83,85:15
84,48:10
84,83:15
84,86:15
85,48:10
85,83:15
85,86:15
86,48:5
87,48:5
88,48:5
89,48:5

<setup times backward>
1,30:3
2,30:3
3,30:3
4,30:3
5,1:7
5,2:7
5,3:7
5,4:7
5,6:7
5,8:7
5,11:7
5,30:10
6,30:3
7,1:7
7,2:7
7,3:7
7,4:7
7,6:7
7,8:7
7,11:7
7,30:10
8,14:3
8,15:3
8,16:3
8,17:3
8,30:3
9,1:7
9,2:7
9,3:7
9,4:7
9,6:7
9,8:7
9,11:7
9,14:10
9,15:10
9,16:10
9,17:10
9,30:10
10,1:7
10,2:7
10,3:7
10,4:7
10,6:7
10,8:7
10,11:7
10,30:10
11,30:3
12,1:7
12,2:7
12,3:7
12,4:7
12,6:7
12,8:7
12,11:7
12,30:10
13,1:7
13,2:7
13,3:7
13,4:7
13,6:7
13,8:7
13,11:7
13,30:10
16,26:1
16,28:1
16,33:3
16,45:5
16,46:5
16,47:5
16,49:5
16,50:5
18,1:3
18,2:3
18,3:3
18,4:3
18,6:3
18,8:3
18,11:3
18,14:6
18,15:6
18,16:6
18,17:6
18,30:6
19,1:3
19,2:3
19,3:3
19,4:3
19,6:3
19,8:3
19,11:3
19,14:6
19,15:6
19,16:6
19,17:6
19,28:7
19,30:6
19,54:9
19,55:11
19,56:11
19,57:11
19,58:4
19,59:4
19,60:4
19,61:1
19,62:4
19,63:11
19,64:4
19,65:4
19,66:4
19,67:1
20,1:3
20,2:3
20,3:3
20,4:3
20,6:3
20,8:3
20,11:3
20,14:6
20,15:6
20,16:6
20,17:6
20,24:1
20,25:1
20,26:7
20,27:1
20,30:6
21,1:3
21,2:3
21,3:3
21,4:3
21,6:3
21,8:3
21,11:3
21,14:6
21,15:6
21,16:6
21,17:6
21,24:1
21,25:1
21,26:7
21,27:1
21,28:7
21,29:3
21,30:6
21,31:3
21,32:3
21,33:9
21,37:6
21,38:6
21,39:6
21,40:4
21,41:4
21,42:4
21,43:6
21,44:4
21,45:11
21,46:11
21,47:11
21,48:1
21,49:11
21,50:11
21,51:1
21,52:1
21,53:1
22,1:3
22,2:3
22,3:3
22,4:3
22,6:3
22,8:3
22,11:3
22,14:6
22,15:6
22,16:6
22,17:6
22,28:7
22,30:6
22,54:9
22,55:11
22,56:11
22,57:11
22,58:4
22,59:4
22,60:4
22,61:1
22,62:4
22,63:11
22,64:4
22,65:4
22,66:4
22,67:1
23,1:3
23,2:3
23,3:3
23,4:3
23,6:3
23,8:3
23,11:3
23,14:6
23,15:6
23,16:6
23,17:6
23,28:7
23,30:6
23,54:9
23,55:11
23,56:11
23,57:11
23,58:4
23,59:4
23,60:4
23,61:1
23,62:4
23,63:11
23,64:4
23,65:4
23,66:4
23,67:1
24,1:2
24,2:2
24,3:2
24,4:2
24,6:2
24,8:2
24,11:2
24,14:5
24,15:5
24,16:5
24,17:5
24,28:6
24,30:5
24,54:8
24,55:10
24,56:10
24,57:10
24,58:3
24,59:3
24,60:3
24,62:3
24,63:10
24,64:3
24,65:3
24,66:3
25,1:2
25,2:2
25,3:2
25,4:2
25,6:2
25,8:2
25,11:2
25,14:5
25,15:5
25,16:5
25,17:5
25,28:6
25,30:5
25,54:8
25,55:10
25,56:10
25,57:10
25,58:3
25,59:3
25,60:3
25,62:3
25,63:10
25,64:3
25,65:3
25,66:3
26,33:2
26,54:2
26,55:4
26,56:4
26,57:4
26,63:4
27,1:2
27,2:2
27,3:2
27,4:2
27,6:2
27,8:2
27,11:2
27,14:5
27,15:5
27,16:5
27,17:5
27,26:6
27,28:6
27,29:2
27,30:5
27,31:2
27,32:2
27,54:8
27,55:10
27,56:10
27,57:10
27,58:3
27,59:3
27,60:3
27,62:3
27,63:10
27,64:3
27,65:3
27,66:3
28,54:2
28,55:4
28,56:4
28,57:4
28,63:4
29,14:3
29,15:3
29,16:3
29,17:3
29,26:4
29,28:4
29,30:3
29,54:6
29,55:8
29,56:8
29,57:8
29,58:1
29,59:1
29,60:1
29,62:1
29,63:8
29,64:1
29,65:1
29,66:1
30,26:1
30,28:1
30,33:3
30,45:5
30,46:5
30,47:5
30,49:5
30,50:5
31,14:3
31,15:3
31,16:3
31,17:3
31,26:4
31,28:4
31,30:3
31,54:6
31,55:8
31,56:8
31,57:8
31,58:1
31,59:1
31,60:1
31,62:1
31,63:8
31,64:1
31,65:1
31,66:1
32,14:3
32,15:3
32,16:3
32,17:3
32,26:4
32,28:4
32,30:3
32,54:6
32,55:8
32,56:8
32,57:8
32,58:1
32,59:1
32,60:1
32,62:1
32,63:8
32,64:1
32,65:1
32,66:1
33,55:2
33,56:2
33,57:2
33,63:2
34,1:4
34,2:4
34,3:4
34,4:4
34,6:4
34,8:4
34,11:4
34,14:7
34,15:7
34,16:7
34,17:7
34,18:1
34,19:1
34,20:1
34,21:1
34,22:1
34,23:1
34,24:2
34,25:2
34,26:8
34,27:2
34,28:8
34,29:4
34,30:7
34,31:4
34,32:4
34,33:10
34,54:10
34,55:12
34,56:12
34,57:12
34,58:5
34,59:5
34,60:5
34,61:2
34,62:5
34,63:12
34,64:5
34,65:5
34,66:5
34,67:2
35,1:4
35,2:4
35,3:4
35,4:4
35,6:4
35,8:4
35,11:4
35,14:7
35,15:7
35,16:7
35,17:7
35,18:1
35,19:1
35,20:1
35,21:1
35,22:1
35,23:1
35,24:2
35,25:2
35,26:8
35,27:2
35,28:8
35,29:4
35,30:7
35,31:4
35,32:4
35,33:10
35,54:10
35,55:12
35,56:12
35,57:12
35,58:5
35,59:5
35,60:5
35,61:2
35,62:5
35,63:12
35,64:5
35,65:5
35,66:5
35,67:2
36,1:4
36,2:4
36,3:4
36,4:4
36,6:4
36,8:4
36,11:4
36,14:7
36,15:7
36,16:7
36,17:7
36,18:1
36,19:1
36,20:1
36,21:1
36,22:1
36,23:1
36,24:2
36,25:2
36,26:8
36,27:2
36,28:8
36,29:4
36,30:7
36,31:4
36,32:4
36,33:10
36,37:7
36,54:10
36,55:12
36,56:12
36,57:12
36,58:5
36,59:5
36,60:5
36,61:2
36,62:5
36,63:12
36,64:5
36,65:5
36,66:5
36,67:2
37,26:1
37,28:1
37,33:3
37,54:3
37,55:5
37,56:5
37,57:5
37,63:5
38,26:1
38,28:1
38,33:3
38,54:3
38,55:5
38,56:5
38,57:5
38,63:5
39,26:1
39,28:1
39,33:3
39,54:3
39,55:5
39,56:5
39,57:5
39,63:5
40,14:2
40,15:2
40,16:2
40,17:2
40,26:3
40,28:3
40,30:2
40,33:5
40,37:2
40,38:2
40,39:2
40,43:2
40,45:7
40,46:7
40,47:7
40,49:7
40,50:7
40,54:5
40,55:7
40,56:7
40,57:7
40,63:7
41,14:2
41,15:2
41,16:2
41,17:2
41,26:3
41,28:3
41,30:2
41,33:5
41,37:2
41,38:2
41,39:2
41,43:2
41,45:7
41,46:7
41,47:7
41,49:7
41,50:7
41,54:5
41,55:7
41,56:7
41,57:7
41,63:7
42,14:2
42,15:2
42,16:2
42,17:2
42,26:3
42,28:3
42,30:2
42,33:5
42,37:2
42,38:2
42,39:2
42,43:2
42,45:7
42,46:7
42,47:7
42,49:7
42,50:7
42,54:5
42,55:7
42,56:7
42,57:7
42,63:7
43,26:1
43,28:1
43,33:3
43,54:3
43,55:5
43,56:5
43,57:5
43,63:5
44,14:2
44,15:2
44,16:2
44,17:2
44,26:3
44,28:3
44,30:2
44,33:5
44,37:2
44,38:2
44,39:2
44,43:2
44,45:7
44,46:7
44,47:7
44,49:7
44,50:7
44,54:5
44,55:7
44,56:7
44,57:7
44,63:7
48,1:2
48,2:2
48,3:2
48,4:2
48,6:2
48,8:2
48,11:2
48,14:5
48,15:5
48,16:5
48,17:5
48,26:6
48,28:6
48,29:2
48,30:5
48,31:2
48,32:2
48,33:8
48,37:5
48,38:5
48,39:5
48,40:3
48,41:3
48,42:3
48,43:5
48,44:3
48,45:10
48,46:10
48,47:10
48,49:10
48,50:10
48,54:8
48,55:10
48,56:10
48,57:10
48,58:3
48,59:3
48,60:3
48,62:3
48,63:10
48,64:3
48,65:3
48,66:3
48,74:11
48,75:11
48,76:11
48,77:11
48,78:11
48,79:10
48,81:10
48,82:10
48,84:10
48,85:10
51,1:2
51,2:2
51,3:2
51,4:2
51,6:2
51,8:2
51,11:2
51,14:5
51,15:5
51,16:5
51,17:5
51,26:6
51,28:6
51,29:2
51,30:5
51,31:2
51,32:2
51,33:8
51,37:5
51,38:5
51,39:5
51,40:3
51,41:3
51,42:3
51,43:5
51,44:3
51,45:10
51,46:10
51,47:10
51,49:10
51,50:10
51,54:8
51,55:10
51,56:10
51,57:10
51,58:3
51,59:3
51,60:3
51,62:3
51,63:10
51,64:3
51,65:3
51,66:3
52,1:2
52,2:2
52,3:2
52,4:2
52,6:2
52,8:2
52,11:2
52,14:5
52,15:5
52,16:5
52,17:5
52,26:6
52,28:6
52,29:2
52,30:5
52,31:2
52,32:2
52,33:8
52,37:5
52,38:5
52,39:5
52,40:3
52,41:3
52,42:3
52,43:5
52,44:3
52,45:10
52,46:10
52,47:10
52,49:10
52,50:10
52,54:8
52,55:10
52,56:10
52,57:10
52,58:3
52,59:3
52,60:3
52,62:3
52,63:10
52,64:3
52,65:3
52,66:3
53,1:2
53,2:2
53,3:2
53,4:2
53,6:2
53,8:2
53,11:2
53,14:5
53,15:5
53,16:5
53,17:5
53,26:6
53,28:6
53,29:2
53,30:5
53,31:2
53,32:2
53,33:8
53,37:5
53,38:5
53,39:5
53,40:3
53,41:3
53,42:3
53,43:5
53,44:3
53,45:10
53,46:10
53,47:10
53,49:10
53,50:10
53,54:8
53,55:10
53,56:10
53,57:10
53,58:3
53,59:3
53,60:3
53,62:3
53,63:10
53,64:3
53,65:3
53,66:3
54,45:2
54,46:2
54,47:2
54,49:2
54,50:2
58,14:2
58,15:2
58,16:2
58,17:2
58,26:3
58,28:3
58,30:2
58,33:5
58,37:2
58,38:2
58,39:2
58,43:2
58,45:7
58,46:7
58,47:7
58,49:7
58,50:7
58,54:5
58,55:7
58,56:7
58,57:7
58,63:7
59,14:2
59,15:2
59,16:2
59,17:2
59,26:3
59,28:3
59,30:2
59,33:5
59,37:2
59,38:2
59,39:2
59,43:2
59,45:7
59,46:7
59,47:7
59,49:7
59,50:7
59,54:5
59,55:7
59,56:7
59,57:7
59,63:7
60,14:2
60,15:2
60,16:2
60,17:2
60,26:3
60,28:3
60,30:2
60,33:5
60,37:2
60,38:2
60,39:2
60,43:2
60,45:7
60,46:7
60,47:7
60,49:7
60,50:7
60,54:5
60,55:7
60,56:7
60,57:7
60,63:7
61,1:2
61,2:2
61,3:2
61,4:2
61,6:2
61,8:2
61,11:2
61,14:5
61,15:5
61,16:5
61,17:5
61,26:6
61,28:6
61,29:2
61,30:5
61,31:2
61,32:2
61,33:8
61,37:5
61,38:5
61,39:5
61,40:3
61,41:3
61,42:3
61,43:5
61,44:3
61,45:10
61,46:10
61,47:10
61,49:10
61,50:10
61,54:8
61,55:10
61,56:10
61,57:10
61,58:3
61,59:3
61,60:3
61,62:3
61,63:10
61,64:3
61,65:3
61,66:3
62,14:2
62,15:2
62,16:2
62,17:2
62,26:3
62,28:3
62,30:2
62,33:5
62,37:2
62,38:2
62,39:2
62,43:2
62,45:7
62,46:7
62,47:7
62,49:7
62,50:7
62,54:5
62,55:7
62,56:7
62,57:7
62,63:7
64,14:2
64,15:2
64,16:2
64,17:2
64,26:3
64,28:3
64,30:2
64,33:5
64,37:2
64,38:2
64,39:2
64,43:2
64,45:7
64,46:7
64,47:7
64,49:7
64,50:7
64,54:5
64,55:7
64,56:7
64,57:7
64,63:7
65,14:2
65,15:2
65,16:2
65,17:2
65,26:3
65,28:3
65,30:2
65,33:5
65,37:2
65,38:2
65,39:2
65,43:2
65,45:7
65,46:7
65,47:7
65,49:7
65,50:7
65,54:5
65,55:7
65,56:7
65,57:7
65,63:7
66,14:2
66,15:2
66,16:2
66,17:2
66,26:3
66,28:3
66,30:2
66,33:5
66,37:2
66,38:2
66,39:2
66,43:2
66,45:7
66,46:7
66,47:7
66,49:7
66,50:7
66,54:5
66,55:7
66,56:7
66,57:7
66,63:7
67,1:2
67,2:2
67,3:2
67,4:2
67,6:2
67,8:2
67,11:2
67,14:5
67,15:5
67,16:5
67,17:5
67,26:6
67,28:6
67,29:2
67,30:5
67,31:2
67,32:2
67,33:8
67,37:5
67,38:5
67,39:5
67,40:3
67,41:3
67,42:3
67,43:5
67,44:3
67,45:10
67,46:10
67,47:10
67,49:10
67,50:10
67,54:8
67,55:10
67,56:10
67,57:10
67,58:3
67,59:3
67,60:3
67,62:3
67,63:10
67,64:3
67,65:3
67,66:3
68,1:5
68,2:5
68,3:5
68,4:5
68,6:5
68,8:5
68,11:5
68,14:8
68,15:8
68,16:8
68,17:8
68,18:2
68,19:2
68,20:2
68,21:2
68,22:2
68,23:2
68,24:3
68,25:3
68,26:9
68,27:3
68,28:9
68,29:5
68,30:8
68,31:5
68,32:5
68,33:11
68,34:1
68,35:1
68,36:1
68,37:8
68,38:8
68,39:8
68,40:6
68,41:6
68,42:6
68,43:8
68,44:6
68,45:13
68,46:13
68,47:13
68,48:3
68,49:13
68,50:13
68,51:3
68,52:3
68,53:3
68,54:11
68,55:13
68,56:13
68,57:13
68,58:6
68,59:6
68,60:6
68,61:3
68,62:6
68,63:13
68,64:6
68,65:6
68,66:6
68,67:3
68,74:14
68,75:14
68,76:14
68,77:14
69,1:5
69,2:5
69,3:5
69,4:5
69,6:5
69,8:5
69,11:5
69,14:8
69,15:8
69,16:8
69,17:8
69,18:2
69,19:2
69,20:2
69,21:2
69,22:2
69,23:2
69,24:3
69,25:3
69,26:9
69,27:3
69,28:9
69,29:5
69,30:8
69,31:5
69,32:5
69,33:11
69,34:1
69,35:1
69,36:1
69,37:8
69,38:8
69,39:8
69,40:6
69,41:6
69,42:6
69,43:8
69,44:6
69,45:13
69,46:13
69,47:13
69,48:3
69,49:13
69,50:13
69,51:3
69,52:3
69,53:3
69,54:11
69,55:13
69,56:13
69,57:13
69,58:6
69,59:6
69,60:6
69,61:3
69,62:6
69,63:13
69,64:6
69,65:6
69,66:6
69,67:3
69,74:14
69,75:14
69,76:14
69,77:14
70,1:5
70,2:5
70,3:5
70,4:5
70,6:5
70,8:5
70,11:5
70,14:8
70,15:8
70,16:8
70,17:8
70,18:2
70,19:2
70,20:2
70,21:2
70,22:2
70,23:2
70,24:3
70,25:3
70,26:9
70,27:3
70,28:9
70,29:5
70,30:8
70,31:5
70,32:5
70,33:11
70,34:1
70,35:1
70,36:1
70,37:8
70,38:8
70,39:8
70,40:6
70,41:6
70,42:6
70,43:8
70,44:6
70,45:13
70,46:13
70,47:13
70,48:3
70,49:13
70,50:13
70,51:3
70,52:3
70,53:3
70,54:11
70,55:13
70,56:13
70,57:13
70,58:6
70,59:6
70,60:6
70,61:3
70,62:6
70,63:13
70,64:6
70,65:6
70,66:6
70,67:3
70,74:14
70,75:14
70,76:14
70,77:14
71,1:5
71,2:5
71,3:5
71,4:5
71,6:5
71,8:5
71,11:5
71,14:8
71,15:8
71,16:8
71,17:8
71,18:2
71,19:2
71,20:2
71,21:2
71,22:2
71,23:2
71,24:3
71,25:3
71,26:9
71,27:3
71,28:9
71,29:5
71,30:8
71,31:5
71,32:5
71,33:11
71,34:1
71,35:1
71,36:1
71,37:8
71,38:8
71,39:8
71,40:6
71,41:6
71,42:6
71,43:8
71,44:6
71,45:13
71,46:13
71,47:13
71,48:3
71,49:13
71,50:13
71,51:3
71,52:3
71,53:3
71,54:11
71,55:13
71,56:13
71,57:13
71,58:6
71,59:6
71,60:6
71,61:3
71,62:6
71,63:13
71,64:6
71,65:6
71,66:6
71,67:3
72,1:5
72,2:5
72,3:5
72,4:5
72,6:5
72,8:5
72,11:5
72,14:8
72,15:8
72,16:8
72,17:8
72,18:2
72,19:2
72,20:2
72,21:2
72,22:2
72,23:2
72,24:3
72,25:3
72,26:9
72,27:3
72,28:9
72,29:5
72,30:8
72,31:5
72,32:5
72,33:11
72,34:1
72,35:1
72,36:1
72,37:8
72,38:8
72,39:8
72,40:6
72,41:6
72,42:6
72,43:8
72,44:6
72,45:13
72,46:13
72,47:13
72,48:3
72,49:13
72,50:13
72,51:3
72,52:3
72,53:3
72,54:11
72,55:13
72,56:13
72,57:13
72,58:6
72,59:6
72,60:6
72,61:3
72,62:6
72,63:13
72,64:6
72,65:6
72,66:6
72,67:3
72,74:14
72,75:14
72,76:14
72,77:14
73,1:5
73,2:5
73,3:5
73,4:5
73,6:5
73,8:5
73,11:5
73,14:8
73,15:8
73,16:8
73,17:8
73,18:2
73,19:2
73,20:2
73,21:2
73,22:2
73,23:2
73,24:3
73,25:3
73,26:9
73,27:3
73,28:9
73,29:5
73,30:8
73,31:5
73,32:5
73,33:11
73,34:1
73,35:1
73,36:1
73,37:8
73,38:8
73,39:8
73,40:6
73,41:6
73,42:6
73,43:8
73,44:6
73,45:13
73,46:13
73,47:13
73,48:3
73,49:13
73,50:13
73,51:3
73,52:3
73,53:3
73,54:11
73,55:13
73,56:13
73,57:13
73,58:6
73,59:6
73,60:6
73,61:3
73,62:6
73,63:13
73,64:6
73,65:6
73,66:6
73,67:3
79,74:1
79,75:1
79,76:1
79,77:1
79,78:1
80,1:5
80,2:5
80,3:5
80,4:5
80,6:5
80,8:5
80,11:5
80,14:8
80,15:8
80,16:8
80,17:8
80,18:2
80,19:2
80,20:2
80,21:2
80,22:2
80,23:2
80,24:3
80,25:3
80,26:9
80,27:3
80,28:9
80,29:5
80,30:8
80,31:5
80,32:5
80,33:11
80,34:1
80,35:1
80,36:1
80,37:8
80,38:8
80,39:8
80,40:6
80,41:6
80,42:6
80,43:8
80,44:6
80,45:13
80,46:13
80,47:13
80,48:3
80,49:13
80,50:13
80,51:3
80,52:3
80,53:3
80,54:11
80,55:13
80,56:13
80,57:13
80,58:6
80,59:6
80,60:6
80,61:3
80,62:6
80,63:13
80,64:6
80,65:6
80,66:6
80,67:3
80,74:14
80,75:14
80,76:14
80,77:14
80,78:14
80,79:13
81,74:1
81,75:1
81,76:1
81,77:1
81,78:1
82,74:1
82,75:1
82,76:1
82,77:1
82,78:1
83,1:7
83,2:7
83,3:7
83,4:7
83,6:7
83,8:7
83,11:7
83,14:10
83,15:10
83,16:10
83,17:10
83,18:4
83,19:4
83,20:4
83,21:4
83,22:4
83,23:4
83,24:5
83,25:5
83,26:11
83,27:5
83,28:11
83,29:7
83,30:10
83,31:7
83,32:7
83,33:13
83,34:3
83,35:3
83,36:3
83,37:10
83,38:10
83,39:10
83,40:8
83,41:8
83,42:8
83,43:10
83,44:8
83,45:15
83,46:15
83,47:15
83,48:5
83,49:15
83,50:15
83,51:5
83,52:5
83,53:5
83,54:13
83,55:15
83,56:15
83,57:15
83,58:8
83,59:8
83,60:8
83,61:5
83,62:8
83,63:15
83,64:8
83,65:8
83,66:8
83,67:5
83,68:2
83,69:2
83,70:2
83,71:2
83,72:2
83,73:2
83,74:16
83,75:16
83,76:16
83,77:16
83,78:16
83,79:15
83,80:2
83,81:15
83,82:15
83,84:15
83,85:15
84,74:1
84,75:1
84,76:1
84,77:1
84,78:1
85,74:1
85,75:1
85,76:1
85,77:1
85,78:1
86,1:7
86,2:7
86,3:7
86,4:7
86,6:7
86,8:7
86,11:7
86,14:10
86,15:10
86,16:10
86,17:10
86,18:4
86,19:4
86,20:4
86,21:4
86,22:4
86,23:4
86,24:5
86,25:5
86,26:11
86,27:5
86,28:11
86,29:7
86,30:10
86,31:7
86,32:7
86,33:13
86,34:3
86,35:3
86,36:3
86,37:10
86,38:10
86,39:10
86,40:8
86,41:8
86,42:8
86,43:10
86,44:8
86,45:15
86,46:15
86,47:15
86,48:5
86,49:15
86,50:15
86,51:5
86,52:5
86,53:5
86,54:13
86,55:15
86,56:15
86,57:15
86,58:8
86,59:8
86,60:8
86,61:5
86,62:8
86,63:15
86,64:8
86,65:8
86,66:8
86,67:5
86,68:2
86,69:2
86,70:2
86,71:2
86,72:2
86,73:2
86,74:16
86,75:16
86,76:16
86,77:16
86,78:16
86,79:15
86,80:2
86,81:15
86,82:15
86,84:15
86,85:15
87,1:7
87,2:7
87,3:7
87,4:7
87,6:7
87,8:7
87,11:7
87,14:10
87,15:10
87,16:10
87,17:10
87,18:4
87,19:4
87,20:4
87,21:4
87,22:4
87,23:4
87,24:5
87,25:5
87,26:11
87,27:5
87,28:11
87,29:7
87,30:10
87,31:7
87,32:7
87,33:13
87,34:3
87,35:3
87,36:3
87,37:10
87,38:10
87,39:10
87,40:8
87,41:8
87,42:8
87,43:10
87,44:8
87,45:15
87,46:15
87,47:15
87,48:5
87,49:15
87,50:15
87,51:5
87,52:5
87,53:5
87,54:13
87,55:15
87,56:15
87,57:15
87,58:8
87,59:8
87,60:8
87,61:5
87,62:8
87,63:15
87,64:8
87,65:8
87,66:8
87,67:5
87,68:2
87,69:2
87,70:2
87,71:2
87,72:2
87,73:2
87,74:16
87,75:16
87,76:16
87,77:16
87,78:16
87,79:15
87,80:2
87,81:15
87,82:15
87,84:15
87,85:15
88,1:7
88,2:7
88,3:7
88,4:7
88,6:7
88,8:7
88,11:7
88,14:10
88,15:10
88,16:10
88,17:10
88,18:4
88,19:4
88,20:4
88,21:4
88,22:4
88,23:4
88,24:5
88,25:5
88,26:11
88,27:5
88,28:11
88,29:7
88,30:10
88,31:7
88,32:7
88,33:13
88,34:3
88,35:3
88,36:3
88,37:10
88,38:10
88,39:10
88,40:8
88,41:8
88,42:8
88,43:10
88,44:8
88,45:15
88,46:15
88,47:15
88,48:5
88,49:15
88,50:15
88,51:5
88,52:5
88,53:5
88,54:13
88,55:15
88,56:15
88,57:15
88,58:8
88,59:8
88,60:8
88,61:5
88,62:8
88,63:15
88,64:8
88,65:8
88,66:8
88,67:5
88,68:2
88,69:2
88,70:2
88,71:2
88,72:2
88,73:2
88,74:16
88,75:16
88,76:16
88,77:16
88,78:16
88,79:15
88,80:2
88,81:15
88,82:15
88,84:15
88,85:15
89,1:7
89,2:7
89,3:7
89,4:7
89,6:7
89,8:7
89,11:7
89,14:10
89,15:10
89,16:10
89,17:10
89,18:4
89,19:4
89,20:4
89,21:4
89,22:4
89,23:4
89,24:5
89,25:5
89,26:11
89,27:5
89,28:11
89,29:7
89,30:10
89,31:7
89,32:7
89,33:13
89,34:3
89,35:3
89,36:3
89,37:10
89,38:10
89,39:10
89,40:8
89,41:8
89,42:8
89,43:10
89,44:8
89,45:15
89,46:15
89,47:15
89,48:5
89,49:15
89,50:15
89,51:5
89,52:5
89,53:5
89,54:13
89,55:15
89,56:15
89,57:15
89,58:8
89,59:8
89,60:8
89,61:5
89,62:8
89,63:15
89,64:8
89,65:8
89,66:8
89,67:5
89,68:2
89,69:2
89,70:2
89,71:2
89,72:2
89,73:2
89,74:16
89,75:16
89,76:16
89,77:16
89,78:16
89,79:15
89,80:2
89,81:15
89,82:15
89,84:15
89,85:15

<end>

<optimal SALBP-1 value>
17


<rand seed>
467321153

<Lower Bounds>
Lm1=16
Lms1=16
Lm2=3
Lm3=5
Lm4=17
Best=17

<Optimal Stations (Iterations: 10)>
20
